20	5
0	2	2	1
1	1	14
2	1	4
3	1	15
4	1	7
5	1	12
6	3	12	9	19
7	1	3
8	1	18
9	1	8
10	1	17
11	1	16
12	0
13	1	20
14	0
15	1	11
16	1	13
17	1	21
18	1	21
19	1	21
20	1	21
21	0
0	0	0	0	0	0	0
1	8	5	3	1	0	4
2	7	0	0	3	5	0
3	2	0	5	4	0	4
4	6	5	0	0	1	0
5	1	0	2	0	4	0
6	6	0	1	0	0	0
7	10	0	5	3	1	0
8	5	5	0	4	2	2
9	10	0	0	0	2	0
10	6	5	0	0	5	3
11	6	0	0	0	4	0
12	6	0	0	0	5	1
13	9	0	3	5	0	0
14	3	2	5	0	4	0
15	3	1	4	4	0	5
16	2	5	0	0	3	0
17	3	0	1	2	2	0
18	5	2	0	0	3	3
19	9	0	4	4	2	3
20	4	0	0	0	0	3
21	0	0	0	0	0	0
5	5	5	5	5
